r = [
0,51,54,8,32,54,42,19,17,8,35,0
];
p = [
0,4,14,5,22,19,2,8,24,10,25,0
];
e = [
0,11,3,12,12,2,10,10,18,7,17,0
];
d = [
0,155,135,34,79,172,116,76,124,39,65,189
];
d_bar = [
0,159,148,39,99,189,118,83,146,48,88,189
];
w = [
0,2.75,0.230769231,2.4,0.6,0.117647059,5,1.428571429,0.818181818,0.777777778,0.739130435,0
];
